;; Mutation-Based Equivalence Benchmark
;; Source:     AutomatArk / instance07832.smt2
;; Mutations:  range_shrink_hi
;; Status:     sat
;;
;; Original regex vs mutated regex
;; Equivalence check: unsat ⟺ L(R1) = L(R2)

(set-info :smt-lib-version 2.6)
(set-info :category "mutation")
(set-info :status sat)
(set-logic QF_S)


;; R1: original
;; R2: mutated (range_shrink_hi)
(assert
  (not
    (=
      (re.++ (re.union (re.++ (str.to_re "0") (re.range "1" "9")) (re.++ (str.to_re "1") (re.range "0" "2"))) (str.to_re "/") (re.union (re.++ (str.to_re "3") (re.range "0" "1")) (re.++ (str.to_re "0") (re.range "1" "9")) (re.++ (str.to_re "2") (re.range "0" "9"))) (str.to_re "/") (re.union (re.++ (str.to_re "19") (re.range "0" "9") (re.range "0" "9")) (re.++ (str.to_re "200") (re.range "0" "3"))) (str.to_re "\u{a}"))
      (re.++ (re.union (re.++ (str.to_re "0") (re.range "1" "9")) (re.++ (str.to_re "1") (re.range "0" "2"))) (str.to_re "/") (re.union (re.++ (str.to_re "3") (re.range "0" "0")) (re.++ (str.to_re "0") (re.range "1" "9")) (re.++ (str.to_re "2") (re.range "0" "9"))) (str.to_re "/") (re.union (re.++ (str.to_re "19") (re.range "0" "9") (re.range "0" "9")) (re.++ (str.to_re "200") (re.range "0" "3"))) (str.to_re "\u{a}")))))

(check-sat)
(exit)
